n = 3;
n2 = 4;
n3 = 5;
match12 = [|
3, 1, 3, 3, 3|
3, 3, 1, 3, 3|
1, 3, 3, 3, 3|
3, 3, 3, 3, 3|
3, 3, 3, 3, 3|];
match23 = [|
3, 3, 3, 1, 3|
3, 1, 3, 3, 3|
3, 3, 1, 3, 3|
3, 3, 3, 3, 3|
3, 3, 3, 3, 3|];
match31 = [|
3, 3, 3, 3, 3|
1, 3, 3, 3, 3|
3, 1, 3, 3, 3|
3, 3, 1, 3, 3|
3, 3, 1, 3, 3|];



